p cnf 378 272
c p distribution  0.875 0.125
c p distribution  0.875 0.125
c p distribution  0.875 0.125
c p distribution  0.875 0.125
c p distribution  0.875 0.125
c p distribution  0.875 0.125
c p distribution  0.875 0.125
c p distribution  0.875 0.125
c p distribution  0.875 0.125
c p distribution  0.875 0.125
c p distribution  0.875 0.125
c p distribution  0.875 0.125
c p distribution  0.875 0.125
c p distribution  0.875 0.125
c p distribution  0.875 0.125
c p distribution  0.875 0.125
c p distribution  0.875 0.125
c p distribution  0.875 0.125
c p distribution  0.875 0.125
c p distribution  0.875 0.125
c p distribution  0.875 0.125
c p distribution  0.875 0.125
c p distribution  0.875 0.125
c p distribution  0.875 0.125
c p distribution  0.875 0.125
c p distribution  0.875 0.125
c p distribution  0.875 0.125
c p distribution  0.875 0.125
c p distribution  0.875 0.125
c p distribution  0.875 0.125
c p distribution  0.875 0.125
c p distribution  0.875 0.125
c p distribution  0.875 0.125
c p distribution  0.875 0.125
c p distribution  0.875 0.125
c p distribution  0.875 0.125
c p distribution  0.875 0.125
c p distribution  0.875 0.125
c p distribution  0.875 0.125
c p distribution  0.875 0.125
c p distribution  0.875 0.125
c p distribution  0.875 0.125
c p distribution  0.875 0.125
c p distribution  0.875 0.125
c p distribution  0.875 0.125
c p distribution  0.875 0.125
c p distribution  0.875 0.125
c p distribution  0.875 0.125
c p distribution  0.875 0.125
c p distribution  0.875 0.125
c p distribution  0.875 0.125
c p distribution  0.875 0.125
c p distribution  0.875 0.125
c p distribution  0.875 0.125
c p distribution  0.875 0.125
c p distribution  0.875 0.125
c p distribution  0.875 0.125
c p distribution  0.875 0.125
c p distribution  0.875 0.125
c p distribution  0.875 0.125
c p distribution  0.875 0.125
c p distribution  0.875 0.125
c p distribution  0.875 0.125
c p distribution  0.875 0.125
c p distribution  0.875 0.125
c p distribution  0.875 0.125
c p distribution  0.875 0.125
c p distribution  0.875 0.125
c p distribution  0.875 0.125
c p distribution  0.875 0.125
c p distribution  0.875 0.125
c p distribution  0.875 0.125
c p distribution  0.875 0.125
c p distribution  0.875 0.125
c p distribution  0.875 0.125
c p distribution  0.875 0.125
c p distribution  0.875 0.125
c p distribution  0.875 0.125
c p distribution  0.875 0.125
c p distribution  0.875 0.125
c p distribution  0.875 0.125
c p distribution  0.875 0.125
c p distribution  0.875 0.125
c p distribution  0.875 0.125
c p distribution  0.875 0.125
c p distribution  0.875 0.125
c p distribution  0.875 0.125
c p distribution  0.875 0.125
c p distribution  0.875 0.125
c p distribution  0.875 0.125
c p distribution  0.875 0.125
c p distribution  0.875 0.125
c p distribution  0.875 0.125
c p distribution  0.875 0.125
c p distribution  0.875 0.125
c p distribution  0.875 0.125
c p distribution  0.875 0.125
c p distribution  0.875 0.125
c p distribution  0.875 0.125
c p distribution  0.875 0.125
c p distribution  0.875 0.125
c p distribution  0.875 0.125
c p distribution  0.875 0.125
c p distribution  0.875 0.125
c p distribution  0.875 0.125
c p distribution  0.875 0.125
c p distribution  0.875 0.125
c p distribution  0.875 0.125
c p distribution  0.875 0.125
c p distribution  0.875 0.125
c p distribution  0.875 0.125
c p distribution  0.875 0.125
c p distribution  0.875 0.125
c p distribution  0.875 0.125
c p distribution  0.875 0.125
c p distribution  0.875 0.125
c p distribution  0.875 0.125
c p distribution  0.875 0.125
c p distribution  0.875 0.125
c p distribution  0.875 0.125
c p distribution  0.875 0.125
c p distribution  0.875 0.125
c p distribution  0.875 0.125
c p distribution  0.875 0.125
c p distribution  0.875 0.125
c p distribution  0.875 0.125
c p distribution  0.875 0.125
c p distribution  0.875 0.125
c p distribution  0.875 0.125
c p distribution  0.875 0.125
c p distribution  0.875 0.125
c p distribution  0.875 0.125
c p distribution  0.875 0.125
c p distribution  0.875 0.125
c p distribution  0.875 0.125
295 0
-353 0
342 -302 -1 0
302 -342 -1 0
326 -338 -3 0
338 -326 -3 0
349 -328 -5 0
328 -349 -5 0
301 -375 -7 0
375 -301 -7 0
323 -345 -9 0
345 -323 -9 0
297 -278 -11 0
278 -297 -11 0
357 -287 -13 0
287 -357 -13 0
314 -291 -15 0
291 -314 -15 0
313 -350 -17 0
350 -313 -17 0
351 -293 -19 0
293 -351 -19 0
330 -293 -21 0
293 -330 -21 0
300 -298 -23 0
298 -300 -23 0
377 -362 -25 0
362 -377 -25 0
353 -308 -27 0
308 -353 -27 0
274 -282 -29 0
282 -274 -29 0
341 -311 -31 0
311 -341 -31 0
338 -277 -33 0
277 -338 -33 0
292 -346 -35 0
346 -292 -35 0
334 -364 -37 0
364 -334 -37 0
280 -358 -39 0
358 -280 -39 0
332 -354 -41 0
354 -332 -41 0
341 -374 -43 0
374 -341 -43 0
318 -374 -45 0
374 -318 -45 0
371 -302 -47 0
302 -371 -47 0
351 -294 -49 0
294 -351 -49 0
352 -315 -51 0
315 -352 -51 0
304 -286 -53 0
286 -304 -53 0
319 -311 -55 0
311 -319 -55 0
284 -346 -57 0
346 -284 -57 0
377 -323 -59 0
323 -377 -59 0
361 -276 -61 0
276 -361 -61 0
285 -315 -63 0
315 -285 -63 0
359 -326 -65 0
326 -359 -65 0
305 -299 -67 0
299 -305 -67 0
318 -377 -69 0
377 -318 -69 0
312 -363 -71 0
363 -312 -71 0
297 -307 -73 0
307 -297 -73 0
354 -294 -75 0
294 -354 -75 0
317 -299 -77 0
299 -317 -77 0
281 -287 -79 0
287 -281 -79 0
365 -345 -81 0
345 -365 -81 0
300 -298 -83 0
298 -300 -83 0
357 -347 -85 0
347 -357 -85 0
289 -350 -87 0
350 -289 -87 0
288 -275 -89 0
275 -288 -89 0
366 -291 -91 0
291 -366 -91 0
321 -291 -93 0
291 -321 -93 0
283 -310 -95 0
310 -283 -95 0
292 -348 -97 0
348 -292 -97 0
316 -320 -99 0
320 -316 -99 0
347 -320 -101 0
320 -347 -101 0
306 -276 -103 0
276 -306 -103 0
340 -353 -105 0
353 -340 -105 0
367 -322 -107 0
322 -367 -107 0
292 -348 -109 0
348 -292 -109 0
346 -329 -111 0
329 -346 -111 0
274 -272 -113 0
272 -274 -113 0
283 -323 -115 0
323 -283 -115 0
308 -335 -117 0
335 -308 -117 0
279 -319 -119 0
319 -279 -119 0
325 -339 -121 0
339 -325 -121 0
375 -339 -123 0
339 -375 -123 0
292 -348 -125 0
348 -292 -125 0
341 -368 -127 0
368 -341 -127 0
301 -274 -129 0
274 -301 -129 0
317 -352 -131 0
352 -317 -131 0
301 -363 -133 0
363 -301 -133 0
305 -299 -135 0
299 -305 -135 0
373 -325 -137 0
325 -373 -137 0
321 -373 -139 0
373 -321 -139 0
326 -297 -141 0
297 -326 -141 0
356 -316 -143 0
316 -356 -143 0
343 -347 -145 0
347 -343 -145 0
276 -294 -147 0
294 -276 -147 0
298 -299 -149 0
299 -298 -149 0
315 -271 -151 0
271 -315 -151 0
332 -275 -153 0
275 -332 -153 0
303 -310 -155 0
310 -303 -155 0
329 -369 -157 0
369 -329 -157 0
273 -362 -159 0
362 -273 -159 0
300 -284 -161 0
284 -300 -161 0
337 -282 -163 0
282 -337 -163 0
300 -298 -165 0
298 -300 -165 0
350 -301 -167 0
301 -350 -167 0
359 -370 -169 0
370 -359 -169 0
322 -307 -171 0
307 -322 -171 0
354 -355 -173 0
355 -354 -173 0
357 -310 -175 0
310 -357 -175 0
276 -294 -177 0
294 -276 -177 0
317 -299 -179 0
299 -317 -179 0
355 -348 -181 0
348 -355 -181 0
298 -300 -183 0
300 -298 -183 0
378 -369 -185 0
369 -378 -185 0
359 -326 -187 0
326 -359 -187 0
301 -272 -189 0
272 -301 -189 0
368 -343 -191 0
343 -368 -191 0
328 -317 -193 0
317 -328 -193 0
287 -320 -195 0
320 -287 -195 0
339 -331 -197 0
331 -339 -197 0
370 -358 -199 0
358 -370 -199 0
317 -300 -201 0
300 -317 -201 0
351 -294 -203 0
294 -351 -203 0
295 -335 -205 0
335 -295 -205 0
317 -300 -207 0
300 -317 -207 0
318 -307 -209 0
307 -318 -209 0
340 -309 -211 0
309 -340 -211 0
309 -340 -213 0
340 -309 -213 0
376 -277 -215 0
277 -376 -215 0
290 -293 -217 0
293 -290 -217 0
337 -363 -219 0
363 -337 -219 0
372 -347 -221 0
347 -372 -221 0
323 -324 -223 0
324 -323 -223 0
354 -358 -225 0
358 -354 -225 0
369 -328 -227 0
328 -369 -227 0
364 -372 -229 0
372 -364 -229 0
311 -368 -231 0
368 -311 -231 0
341 -324 -233 0
324 -341 -233 0
288 -332 -235 0
332 -288 -235 0
359 -336 -237 0
336 -359 -237 0
340 -296 -239 0
296 -340 -239 0
344 -335 -241 0
335 -344 -241 0
327 -331 -243 0
331 -327 -243 0
344 -295 -245 0
295 -344 -245 0
317 -301 -247 0
301 -317 -247 0
345 -362 -249 0
362 -345 -249 0
343 -316 -251 0
316 -343 -251 0
336 -289 -253 0
289 -336 -253 0
292 -348 -255 0
348 -292 -255 0
370 -360 -257 0
360 -370 -257 0
300 -329 -259 0
329 -300 -259 0
378 -366 -261 0
366 -378 -261 0
309 -344 -263 0
344 -309 -263 0
359 -271 -265 0
271 -359 -265 0
288 -371 -267 0
371 -288 -267 0
305 -295 -269 0
295 -305 -269 0

